NAME : 10_3_3_3_(49).dat
COMMENT : Henke, Speranza, Wäscher, 2015
TYPE : MCVRP
DIMENSION : 11
EDGE_WEIGHT_TYPE : DISTANCE_MATRIX
CAPACITY : 1000
VEHICLES : 2
PRODUCT TYPES : 3
COMPARTMENTS : 3
NODE_COORD_SECTION
1 50 50
2 8.13 67.78
3 42.76 39.11
4 13.35 33.9
5 73.03 46.92
6 62.1 43.95
7 44.86 36
8 68.14 69.77
9 67.24 1.98
10 43.53 46.87
11 82.42 3.35
DEMAND_SECTION
1 0 0 0
2 111 12 5
3 23 29 29
4 63 94 29
5 53 32 12
6 76 19 25
7 8 54 29
8 100 13 35
9 27 89 28
10 58 11 31
11 123 30 34
DEPOT_SECTION
1
EOF